89 19
90 7
13 151
86 33
42 47
38 1
84 4
34 120
36 65
12 19
20 85
14 120
21 62
19 150
1 59
58 20
36 6
64 36
33 27
15 45
76 43
83 11
63 11
6 114
60 96
17 192
9 91
71 22
74 80
16 65
3 131
50 115
75 32
30 99
97 60
21 86
53 61
3 63
17 38
16 18
10 63
12 120
37 79
58 42
13 160
30 10
8 106
3 44
52 67
34 127
88 19
7 32
11 190
7 99
17 129
16 191
19 186
14 180
41 39
36 92
33 12
91 25
4 142
36 47
21 157
65 14
22 176
16 71
24 66
1 39
42 69
28 1
34 37
21 86
40 76
5 166
75 70
41 22
24 63
23 171
80 19
86 25
47 19
68 8
16 168
55 25
31 141
61 12
28 104
3 137
5 39
22 65
66 66
28 151
13 72
19 63
46 51
81 16
38 52
32 113
